c 0.0036509037017822266 (encode time in sec)
p cnf 134 280
1 2 3 4 0
1 2 -3 6 0
1 -2 3 5 0
1 -2 -3 6 0
-1 2 3 4 0
-1 2 -3 0
-1 -2 3 0
-1 -2 -3 0
7 8 9 10 0
7 8 -9 13 0
7 -8 9 12 0
7 -8 -9 11 0
-7 8 9 14 0
-7 8 -9 0
-7 -8 9 0
-7 -8 -9 0
15 16 17 18 0
15 16 -17 19 0
15 -16 17 22 0
15 -16 -17 21 0
-15 16 17 20 0
-15 16 -17 0
-15 -16 17 0
-15 -16 -17 0
23 24 25 1 2 3 7 8 9 26 0
23 24 25 1 2 3 7 8 -9 29 0
23 24 25 1 2 3 7 -8 9 57 0
23 24 25 1 2 3 7 -8 -9 27 0
23 24 25 1 2 3 -7 8 9 26 0
23 24 25 1 2 -3 7 8 9 28 0
23 24 25 1 2 -3 7 8 -9 30 0
23 24 25 1 2 -3 7 -8 9 31 0
23 24 25 1 2 -3 7 -8 -9 64 0
23 24 25 1 2 -3 -7 8 9 47 0
23 24 25 1 -2 3 7 8 9 32 0
23 24 25 1 -2 3 7 8 -9 33 0
23 24 25 1 -2 3 7 -8 9 71 0
23 24 25 1 -2 3 7 -8 -9 51 0
23 24 25 1 -2 3 -7 8 9 34 0
23 24 25 1 -2 -3 7 8 9 35 0
23 24 25 1 -2 -3 7 8 -9 42 0
23 24 25 1 -2 -3 7 -8 9 80 0
23 24 25 1 -2 -3 7 -8 -9 70 0
23 24 25 1 -2 -3 -7 8 9 27 0
23 24 25 -1 2 3 7 8 9 26 0
23 24 25 -1 2 3 7 8 -9 58 0
23 24 25 -1 2 3 7 -8 9 59 0
23 24 25 -1 2 3 7 -8 -9 27 0
23 24 25 -1 2 3 -7 8 9 26 0
23 24 -25 1 2 3 7 8 9 26 0
23 24 -25 1 2 3 7 8 -9 49 0
23 24 -25 1 2 3 7 -8 9 55 0
23 24 -25 1 2 3 7 -8 -9 27 0
23 24 -25 1 2 3 -7 8 9 26 0
23 24 -25 1 2 -3 7 8 9 46 0
23 24 -25 1 2 -3 7 8 -9 66 0
23 24 -25 1 2 -3 7 -8 9 43 0
23 24 -25 1 2 -3 7 -8 -9 64 0
23 24 -25 1 2 -3 -7 8 9 47 0
23 24 -25 1 -2 3 7 8 9 53 0
23 24 -25 1 -2 3 7 8 -9 36 0
23 24 -25 1 -2 3 7 -8 9 60 0
23 24 -25 1 -2 3 7 -8 -9 51 0
23 24 -25 1 -2 3 -7 8 9 34 0
23 24 -25 1 -2 -3 7 8 9 69 0
23 24 -25 1 -2 -3 7 8 -9 61 0
23 24 -25 1 -2 -3 7 -8 9 80 0
23 24 -25 1 -2 -3 7 -8 -9 70 0
23 24 -25 1 -2 -3 -7 8 9 27 0
23 24 -25 -1 2 3 7 8 9 26 0
23 24 -25 -1 2 3 7 8 -9 58 0
23 24 -25 -1 2 3 7 -8 9 59 0
23 24 -25 -1 2 3 7 -8 -9 27 0
23 24 -25 -1 2 3 -7 8 9 26 0
23 -24 25 1 2 3 7 8 9 26 0
23 -24 25 1 2 3 7 8 -9 49 0
23 -24 25 1 2 3 7 -8 9 57 0
23 -24 25 1 2 3 7 -8 -9 37 0
23 -24 25 1 2 3 -7 8 9 26 0
23 -24 25 1 2 -3 7 8 9 46 0
23 -24 25 1 2 -3 7 8 -9 73 0
23 -24 25 1 2 -3 7 -8 9 81 0
23 -24 25 1 2 -3 7 -8 -9 72 0
23 -24 25 1 2 -3 -7 8 9 47 0
23 -24 25 1 -2 3 7 8 9 45 0
23 -24 25 1 -2 3 7 8 -9 76 0
23 -24 25 1 -2 3 7 -8 9 67 0
23 -24 25 1 -2 3 7 -8 -9 62 0
23 -24 25 1 -2 3 -7 8 9 34 0
23 -24 25 1 -2 -3 7 8 9 59 0
23 -24 25 1 -2 -3 7 8 -9 50 0
23 -24 25 1 -2 -3 7 -8 9 65 0
23 -24 25 1 -2 -3 7 -8 -9 70 0
23 -24 25 1 -2 -3 -7 8 9 27 0
23 -24 25 -1 2 3 7 8 9 26 0
23 -24 25 -1 2 3 7 8 -9 63 0
23 -24 25 -1 2 3 7 -8 9 59 0
23 -24 25 -1 2 3 7 -8 -9 27 0
23 -24 25 -1 2 3 -7 8 9 26 0
23 -24 -25 1 2 3 7 8 9 26 0
23 -24 -25 1 2 3 7 8 -9 49 0
23 -24 -25 1 2 3 7 -8 9 57 0
23 -24 -25 1 2 3 7 -8 -9 27 0
23 -24 -25 1 2 3 -7 8 9 26 0
23 -24 -25 1 2 -3 7 8 9 46 0
23 -24 -25 1 2 -3 7 8 -9 54 0
23 -24 -25 1 2 -3 7 -8 9 56 0
23 -24 -25 1 2 -3 7 -8 -9 74 0
23 -24 -25 1 2 -3 -7 8 9 37 0
23 -24 -25 1 -2 3 7 8 9 45 0
23 -24 -25 1 -2 3 7 8 -9 38 0
23 -24 -25 1 -2 3 7 -8 9 48 0
23 -24 -25 1 -2 3 7 -8 -9 78 0
23 -24 -25 1 -2 3 -7 8 9 39 0
23 -24 -25 1 -2 -3 7 8 9 59 0
23 -24 -25 1 -2 -3 7 8 -9 58 0
23 -24 -25 1 -2 -3 7 -8 9 68 0
23 -24 -25 1 -2 -3 7 -8 -9 79 0
23 -24 -25 1 -2 -3 -7 8 9 27 0
23 -24 -25 -1 2 3 7 8 9 26 0
23 -24 -25 -1 2 3 7 8 -9 75 0
23 -24 -25 -1 2 3 7 -8 9 69 0
23 -24 -25 -1 2 3 7 -8 -9 27 0
23 -24 -25 -1 2 3 -7 8 9 26 0
-23 24 25 1 2 3 7 8 9 26 0
-23 24 25 1 2 3 7 8 -9 49 0
-23 24 25 1 2 3 7 -8 9 57 0
-23 24 25 1 2 3 7 -8 -9 27 0
-23 24 25 1 2 3 -7 8 9 26 0
-23 24 25 1 2 -3 7 8 9 46 0
-23 24 25 1 2 -3 7 8 -9 54 0
-23 24 25 1 2 -3 7 -8 9 31 0
-23 24 25 1 2 -3 7 -8 -9 64 0
-23 24 25 1 2 -3 -7 8 9 40 0
-23 24 25 1 -2 3 7 8 9 45 0
-23 24 25 1 -2 3 7 8 -9 38 0
-23 24 25 1 -2 3 7 -8 9 71 0
-23 24 25 1 -2 3 7 -8 -9 44 0
-23 24 25 1 -2 3 -7 8 9 41 0
-23 24 25 1 -2 -3 7 8 9 59 0
-23 24 25 1 -2 -3 7 8 -9 42 0
-23 24 25 1 -2 -3 7 -8 9 77 0
-23 24 25 1 -2 -3 7 -8 -9 52 0
-23 24 25 1 -2 -3 -7 8 9 37 0
-23 24 25 -1 2 3 7 8 9 26 0
-23 24 25 -1 2 3 7 8 -9 58 0
-23 24 25 -1 2 3 7 -8 9 35 0
-23 24 25 -1 2 3 7 -8 -9 37 0
-23 24 25 -1 2 3 -7 8 9 26 0
-23 24 -25 0
-23 -24 25 0
-23 -24 -25 0
82 83 84 15 16 17 23 24 25 85 0
82 83 84 15 16 17 23 24 -25 112 0
82 83 84 15 16 17 23 -24 25 103 0
82 83 84 15 16 17 23 -24 -25 86 0
82 83 84 15 16 17 -23 24 25 112 0
82 83 84 15 16 -17 23 24 25 87 0
82 83 84 15 16 -17 23 24 -25 121 0
82 83 84 15 16 -17 23 -24 25 134 0
82 83 84 15 16 -17 23 -24 -25 104 0
82 83 84 15 16 -17 -23 24 25 113 0
82 83 84 15 -16 17 23 24 25 88 0
82 83 84 15 -16 17 23 24 -25 114 0
82 83 84 15 -16 17 23 -24 25 110 0
82 83 84 15 -16 17 23 -24 -25 102 0
82 83 84 15 -16 17 -23 24 25 126 0
82 83 84 15 -16 -17 23 24 25 89 0
82 83 84 15 -16 -17 23 24 -25 90 0
82 83 84 15 -16 -17 23 -24 25 127 0
82 83 84 15 -16 -17 23 -24 -25 128 0
82 83 84 15 -16 -17 -23 24 25 87 0
82 83 84 -15 16 17 23 24 25 115 0
82 83 84 -15 16 17 23 24 -25 88 0
82 83 84 -15 16 17 23 -24 25 91 0
82 83 84 -15 16 17 23 -24 -25 88 0
82 83 84 -15 16 17 -23 24 25 115 0
82 83 -84 15 16 17 23 24 25 87 0
82 83 -84 15 16 17 23 24 -25 92 0
82 83 -84 15 16 17 23 -24 25 116 0
82 83 -84 15 16 17 23 -24 -25 86 0
82 83 -84 15 16 17 -23 24 25 112 0
82 83 -84 15 16 -17 23 24 25 93 0
82 83 -84 15 16 -17 23 24 -25 94 0
82 83 -84 15 16 -17 23 -24 25 132 0
82 83 -84 15 16 -17 23 -24 -25 104 0
82 83 -84 15 16 -17 -23 24 25 113 0
82 83 -84 15 -16 17 23 24 25 95 0
82 83 -84 15 -16 17 23 24 -25 124 0
82 83 -84 15 -16 17 23 -24 25 110 0
82 83 -84 15 -16 17 23 -24 -25 102 0
82 83 -84 15 -16 17 -23 24 25 126 0
82 83 -84 15 -16 -17 23 24 25 125 0
82 83 -84 15 -16 -17 23 24 -25 96 0
82 83 -84 15 -16 -17 23 -24 25 127 0
82 83 -84 15 -16 -17 23 -24 -25 128 0
82 83 -84 15 -16 -17 -23 24 25 87 0
82 83 -84 -15 16 17 23 24 25 123 0
82 83 -84 -15 16 17 23 24 -25 88 0
82 83 -84 -15 16 17 23 -24 25 91 0
82 83 -84 -15 16 17 23 -24 -25 88 0
82 83 -84 -15 16 17 -23 24 25 115 0
82 -83 84 15 16 17 23 24 25 87 0
82 -83 84 15 16 17 23 24 -25 112 0
82 -83 84 15 16 17 23 -24 25 109 0
82 -83 84 15 16 17 23 -24 -25 91 0
82 -83 84 15 16 17 -23 24 25 112 0
82 -83 84 15 16 -17 23 24 25 117 0
82 -83 84 15 16 -17 23 24 -25 118 0
82 -83 84 15 16 -17 23 -24 25 129 0
82 -83 84 15 16 -17 23 -24 -25 100 0
82 -83 84 15 16 -17 -23 24 25 113 0
82 -83 84 15 -16 17 23 24 25 118 0
82 -83 84 15 -16 17 23 24 -25 101 0
82 -83 84 15 -16 17 23 -24 25 106 0
82 -83 84 15 -16 17 23 -24 -25 102 0
82 -83 84 15 -16 17 -23 24 25 126 0
82 -83 84 15 -16 -17 23 24 25 112 0
82 -83 84 15 -16 -17 23 24 -25 130 0
82 -83 84 15 -16 -17 23 -24 25 133 0
82 -83 84 15 -16 -17 23 -24 -25 128 0
82 -83 84 15 -16 -17 -23 24 25 87 0
82 -83 84 -15 16 17 23 24 25 115 0
82 -83 84 -15 16 17 23 24 -25 88 0
82 -83 84 -15 16 17 23 -24 25 97 0
82 -83 84 -15 16 17 23 -24 -25 88 0
82 -83 84 -15 16 17 -23 24 25 115 0
82 -83 -84 15 16 17 23 24 25 87 0
82 -83 -84 15 16 17 23 24 -25 112 0
82 -83 -84 15 16 17 23 -24 25 103 0
82 -83 -84 15 16 17 23 -24 -25 98 0
82 -83 -84 15 16 17 -23 24 25 89 0
82 -83 -84 15 16 -17 23 24 25 117 0
82 -83 -84 15 16 -17 23 24 -25 121 0
82 -83 -84 15 16 -17 23 -24 25 117 0
82 -83 -84 15 16 -17 23 -24 -25 131 0
82 -83 -84 15 16 -17 -23 24 25 115 0
82 -83 -84 15 -16 17 23 24 25 118 0
82 -83 -84 15 -16 17 23 24 -25 114 0
82 -83 -84 15 -16 17 23 -24 25 119 0
82 -83 -84 15 -16 17 23 -24 -25 107 0
82 -83 -84 15 -16 17 -23 24 25 126 0
82 -83 -84 15 -16 -17 23 24 25 112 0
82 -83 -84 15 -16 -17 23 24 -25 90 0
82 -83 -84 15 -16 -17 23 -24 25 111 0
82 -83 -84 15 -16 -17 23 -24 -25 122 0
82 -83 -84 15 -16 -17 -23 24 25 87 0
82 -83 -84 -15 16 17 23 24 25 115 0
82 -83 -84 -15 16 17 23 24 -25 88 0
82 -83 -84 -15 16 17 23 -24 25 91 0
82 -83 -84 -15 16 17 23 -24 -25 88 0
82 -83 -84 -15 16 17 -23 24 25 115 0
-82 83 84 15 16 17 23 24 25 87 0
-82 83 84 15 16 17 23 24 -25 112 0
-82 83 84 15 16 17 23 -24 25 103 0
-82 83 84 15 16 17 23 -24 -25 86 0
-82 83 84 15 16 17 -23 24 25 125 0
-82 83 84 15 16 -17 23 24 25 117 0
-82 83 84 15 16 -17 23 24 -25 121 0
-82 83 84 15 16 -17 23 -24 25 134 0
-82 83 84 15 16 -17 23 -24 -25 104 0
-82 83 84 15 16 -17 -23 24 25 108 0
-82 83 84 15 -16 17 23 24 25 118 0
-82 83 84 15 -16 17 23 24 -25 114 0
-82 83 84 15 -16 17 23 -24 25 110 0
-82 83 84 15 -16 17 23 -24 -25 105 0
-82 83 84 15 -16 17 -23 24 25 120 0
-82 83 84 15 -16 -17 23 24 25 112 0
-82 83 84 15 -16 -17 23 24 -25 90 0
-82 83 84 15 -16 -17 23 -24 25 127 0
-82 83 84 15 -16 -17 23 -24 -25 122 0
-82 83 84 15 -16 -17 -23 24 25 85 0
-82 83 84 -15 16 17 23 24 25 115 0
-82 83 84 -15 16 17 23 24 -25 88 0
-82 83 84 -15 16 17 23 -24 25 99 0
-82 83 84 -15 16 17 23 -24 -25 88 0
-82 83 84 -15 16 17 -23 24 25 123 0
-82 83 -84 0
-82 -83 84 0
-82 -83 -84 0
